benchmarks/crosswords/mzn/crossword3_20.ozn
output ([(((("\n"++problem_name)++"\n")++"L:")++show(L))++"\n"]++[if problem[i,j]==0 then "*" else show(letters[fix(L[problem[i,j]])]) endif++if j==cols then "\n" else "" endif | i in 1..rows, j in 1..cols, ])++["\n"];
int: rows = 19;
int: cols = 19;
array [1..rows,1..cols] of int: problem = [|1,2,3,4,0,5,6,7,8,0,9,10,11,12,0,13,14,15,16|17,18,19,20,0,21,22,23,24,0,25,26,27,28,0,29,30,31,32|33,34,35,36,37,38,39,40,41,0,42,43,44,45,46,47,48,49,50|51,52,53,54,55,56,57,0,58,59,60,61,0,62,63,64,65,66,67|0,0,0,68,69,70,0,71,72,73,74,0,75,76,77,78,0,0,0|79,80,81,82,83,0,84,85,86,87,0,88,89,90,91,92,93,94,95|96,97,98,99,0,100,101,102,103,0,104,105,106,107,108,0,109,110,111|112,113,114,0,115,116,117,118,0,119,120,121,122,123,0,124,125,126,127|128,129,130,131,132,133,134,0,135,136,137,138,139,0,140,141,142,143,144|0,0,145,146,147,148,0,149,150,151,152,153,0,154,155,156,157,0,0|158,159,160,161,162,0,163,164,165,166,167,0,168,169,170,171,172,173,174|175,176,177,178,0,179,180,181,182,183,0,184,185,186,187,0,188,189,190|191,192,193,0,194,195,196,197,198,0,199,200,201,202,0,203,204,205,206|207,208,209,210,211,212,213,214,0,215,216,217,218,0,219,220,221,222,223|0,0,0,224,225,226,227,0,228,229,230,231,0,232,233,234,0,0,0|235,236,237,238,239,240,0,241,242,243,244,0,245,246,247,248,249,250,251|252,253,254,255,256,257,258,259,260,0,261,262,263,264,265,266,267,268,269|270,271,272,273,0,274,275,276,277,0,278,279,280,281,0,282,283,284,285|286,287,288,289,0,290,291,292,293,0,294,295,296,297,0,298,299,300,301|];
int: num_letters = 26;
array [1..num_letters] of string: letters = ["a","b","c","d","e","f","g","h","i","j","k","l","m","n","o","p","q","r","s","t","u","v","w","x","y","z"];
int: N = 301;
array [0..N] of int: L;
string: problem_name = "19.01, 19 x 19";
