benchmarks/crosswords/mzn/crossword3_20.res
REGULAR
REGULAR
REGULAR
REGULAR
REGULAR
REGULAR
REGULAR
REGULAR
REGULAR
REGULAR
REGULAR
REGULAR
REGULAR
REGULAR
REGULAR
REGULAR
REGULAR
REGULAR
REGULAR
REGULAR
REGULAR
REGULAR
REGULAR
REGULAR
REGULAR
REGULAR
REGULAR
REGULAR
REGULAR
REGULAR
REGULAR
REGULAR
REGULAR
REGULAR
REGULAR
REGULAR
REGULAR
REGULAR
REGULAR
REGULAR
REGULAR
REGULAR
REGULAR
REGULAR
REGULAR
REGULAR
REGULAR
REGULAR
REGULAR
REGULAR
REGULAR
REGULAR
REGULAR
REGULAR
REGULAR
REGULAR
REGULAR
REGULAR
REGULAR
REGULAR
REGULAR
REGULAR
REGULAR
REGULAR
REGULAR
REGULAR
REGULAR
REGULAR
REGULAR
REGULAR
REGULAR
REGULAR
REGULAR
REGULAR
REGULAR
REGULAR
REGULAR
REGULAR
REGULAR
REGULAR
REGULAR
REGULAR
REGULAR
REGULAR
REGULAR
REGULAR
REGULAR
REGULAR
REGULAR
REGULAR
REGULAR
REGULAR
REGULAR
REGULAR
REGULAR
REGULAR
REGULAR
REGULAR
REGULAR
REGULAR
REGULAR
REGULAR
REGULAR
REGULAR
REGULAR
REGULAR
REGULAR
REGULAR
REGULAR
REGULAR
REGULAR
REGULAR
REGULAR
REGULAR
REGULAR
REGULAR
REGULAR
REGULAR
REGULAR
REGULAR
REGULAR
REGULAR
REGULAR
REGULAR
REGULAR
REGULAR
REGULAR
REGULAR
L = array1d(0..301, [1, 14, 1, 5, 23, 19, 5, 7, 1, 1, 19, 12, 5, 18, 5, 5, 4, 1, 18, 11, 15, 7, 14, 1, 8, 2, 2, 5, 23, 1, 12, 21, 5, 12, 1, 1, 22, 19, 14, 1, 18, 20, 13, 1, 5, 2, 19, 19, 15, 18, 3, 1, 3, 3, 1, 12, 1, 13, 1, 2, 21, 3, 1, 14, 5, 8, 20, 1, 19, 1, 7, 1, 2, 5, 18, 19, 2, 12, 1, 1, 4, 12, 9, 7, 14, 23, 1, 4, 14, 5, 13, 9, 3, 5, 16, 19, 2, 21, 1, 4, 4, 1, 15, 20, 4, 5, 20, 9, 11, 7, 1, 2, 12, 1, 7, 1, 5, 4, 9, 5, 18, 9, 1, 26, 25, 18, 5, 1, 1, 2, 5, 9, 7, 12, 1, 4, 14, 1, 12, 2, 1, 14, 1, 8, 7, 12, 1, 1, 2, 5, 9, 18, 5, 1, 19, 7, 1, 8, 1, 11, 1, 8, 19, 18, 1, 2, 1, 2, 1, 14, 5, 13, 3, 12, 1, 13, 1, 18, 20, 19, 1, 13, 1, 13, 1, 14, 1, 19, 18, 1, 5, 12, 15, 1, 19, 5, 12, 15, 18, 19, 18, 1, 2, 19, 21, 14, 1, 5, 19, 16, 1, 12, 12, 15, 3, 19, 2, 1, 4, 19, 5, 19, 1, 7, 4, 9, 1, 13, 25, 4, 1, 12, 16, 9, 12, 4, 5, 20, 14, 1, 23, 5, 19, 1, 2, 19, 21, 20, 21, 1, 12, 16, 5, 12, 2, 1, 20, 14, 9, 18, 16, 15, 4, 1, 14, 15, 4, 12, 1, 13, 12, 1, 5, 13, 21, 12, 1, 25, 1, 14, 12, 21, 15, 5, 18, 15, 19, 4, 4, 1, 7, 5, 18, 7, 2, 1, 1, 19, 13, 12, 1, 16]);
----------

%%  runtime:       14.774 (14774.454 ms)
%%  solvetime:     0.162 (162.427 ms)
%%  solutions:     1
%%  variables:     24960
%%  propagators:   32914
%%  propagations:  250308
%%  nodes:         146
%%  failures:      11
%%  restarts:      0
%%  peak depth:    129

GECODE_TUPLESET_MEM
GECODE_TUPLESET_MEM
GECODE_TUPLESET_MEM
GECODE_TUPLESET_MEM
GECODE_TUPLESET_MEM
GECODE_TUPLESET_MEM
GECODE_TUPLESET_MEM
GECODE_TUPLESET_MEM
GECODE_TUPLESET_MEM
GECODE_TUPLESET_MEM
GECODE_TUPLESET_MEM
GECODE_TUPLESET_MEM
GECODE_TUPLESET_MEM
GECODE_TUPLESET_MEM
GECODE_TUPLESET_MEM
GECODE_TUPLESET_MEM
GECODE_TUPLESET_MEM
GECODE_TUPLESET_MEM
GECODE_TUPLESET_MEM
GECODE_TUPLESET_MEM
GECODE_TUPLESET_MEM
GECODE_TUPLESET_MEM
GECODE_TUPLESET_MEM
GECODE_TUPLESET_MEM
GECODE_TUPLESET_MEM
GECODE_TUPLESET_MEM
GECODE_TUPLESET_MEM
GECODE_TUPLESET_MEM
GECODE_TUPLESET_MEM
GECODE_TUPLESET_MEM
GECODE_TUPLESET_MEM
GECODE_TUPLESET_MEM
GECODE_TUPLESET_MEM
GECODE_TUPLESET_MEM
GECODE_TUPLESET_MEM
GECODE_TUPLESET_MEM
GECODE_TUPLESET_MEM
GECODE_TUPLESET_MEM
GECODE_TUPLESET_MEM
GECODE_TUPLESET_MEM
GECODE_TUPLESET_MEM
GECODE_TUPLESET_MEM
GECODE_TUPLESET_MEM
GECODE_TUPLESET_MEM
GECODE_TUPLESET_MEM
GECODE_TUPLESET_MEM
GECODE_TUPLESET_MEM
GECODE_TUPLESET_MEM
GECODE_TUPLESET_MEM
GECODE_TUPLESET_MEM
GECODE_TUPLESET_MEM
GECODE_TUPLESET_MEM
GECODE_TUPLESET_MEM
GECODE_TUPLESET_MEM
GECODE_TUPLESET_MEM
GECODE_TUPLESET_MEM
GECODE_TUPLESET_MEM
GECODE_TUPLESET_MEM
GECODE_TUPLESET_MEM
GECODE_TUPLESET_MEM
GECODE_TUPLESET_MEM
GECODE_TUPLESET_MEM
GECODE_TUPLESET_MEM
GECODE_TUPLESET_MEM
GECODE_TUPLESET_MEM
GECODE_TUPLESET_MEM
GECODE_TUPLESET_MEM
GECODE_TUPLESET_MEM
GECODE_TUPLESET_MEM
GECODE_TUPLESET_MEM
GECODE_TUPLESET_MEM
GECODE_TUPLESET_MEM
GECODE_TUPLESET_MEM
GECODE_TUPLESET_MEM
GECODE_TUPLESET_MEM
GECODE_TUPLESET_MEM
GECODE_TUPLESET_MEM
GECODE_TUPLESET_MEM
GECODE_TUPLESET_MEM
GECODE_TUPLESET_MEM
GECODE_TUPLESET_MEM
GECODE_TUPLESET_MEM
GECODE_TUPLESET_MEM
GECODE_TUPLESET_MEM
GECODE_TUPLESET_MEM
GECODE_TUPLESET_MEM
GECODE_TUPLESET_MEM
GECODE_TUPLESET_MEM
GECODE_TUPLESET_MEM
GECODE_TUPLESET_MEM
GECODE_TUPLESET_MEM
GECODE_TUPLESET_MEM
GECODE_TUPLESET_MEM
GECODE_TUPLESET_MEM
GECODE_TUPLESET_MEM
GECODE_TUPLESET_MEM
GECODE_TUPLESET_MEM
GECODE_TUPLESET_MEM
GECODE_TUPLESET_MEM
GECODE_TUPLESET_MEM
GECODE_TUPLESET_MEM
GECODE_TUPLESET_MEM
GECODE_TUPLESET_MEM
GECODE_TUPLESET_MEM
GECODE_TUPLESET_MEM
GECODE_TUPLESET_MEM
GECODE_TUPLESET_MEM
GECODE_TUPLESET_MEM
GECODE_TUPLESET_MEM
GECODE_TUPLESET_MEM
GECODE_TUPLESET_MEM
GECODE_TUPLESET_MEM
GECODE_TUPLESET_MEM
GECODE_TUPLESET_MEM
GECODE_TUPLESET_MEM
GECODE_TUPLESET_MEM
GECODE_TUPLESET_MEM
GECODE_TUPLESET_MEM
GECODE_TUPLESET_MEM
GECODE_TUPLESET_MEM
GECODE_TUPLESET_MEM
GECODE_TUPLESET_MEM
GECODE_TUPLESET_MEM
GECODE_TUPLESET_MEM
GECODE_TUPLESET_MEM
GECODE_TUPLESET_MEM
GECODE_TUPLESET_MEM
GECODE_TUPLESET_MEM
L = array1d(0..301, [1, 18, 15, 1, 13, 1, 8, 1, 2, 1, 7, 5, 19, 8, 5, 18, 2, 5, 12, 2, 1, 4, 1, 4, 1, 7, 1, 5, 1, 1, 18, 9, 1, 2, 1, 12, 20, 8, 1, 26, 1, 18, 7, 15, 12, 4, 19, 13, 9, 20, 8, 1, 22, 5, 18, 1, 7, 5, 2, 1, 9, 12, 4, 1, 9, 19, 5, 19, 15, 14, 5, 2, 1, 2, 5, 2, 21, 12, 12, 2, 12, 1, 14, 4, 18, 1, 18, 5, 12, 15, 3, 1, 12, 9, 14, 7, 1, 9, 4, 19, 2, 5, 12, 1, 1, 9, 18, 5, 4, 13, 1, 5, 12, 5, 9, 20, 1, 9, 12, 21, 12, 14, 1, 5, 3, 1, 13, 5, 9, 4, 1, 8, 15, 1, 14, 9, 14, 4, 5, 24, 3, 1, 7, 5, 4, 2, 1, 7, 19, 1, 19, 16, 5, 14, 23, 1, 4, 9, 4, 8, 1, 11, 1, 3, 8, 1, 9, 14, 16, 1, 18, 19, 14, 9, 16, 18, 1, 20, 5, 16, 1, 5, 1, 14, 18, 1, 7, 1, 1, 12, 1, 1, 12, 9, 19, 21, 13, 1, 3, 7, 1, 7, 5, 1, 18, 11, 19, 2, 5, 3, 1, 12, 13, 5, 4, 2, 1, 20, 5, 1, 2, 25, 19, 19, 4, 5, 13, 15, 20, 1, 4, 19, 2, 21, 19, 2, 5, 19, 9, 4, 5, 1, 8, 1, 19, 16, 1, 4, 9, 12, 12, 1, 12, 1, 14, 4, 19, 12, 9, 4, 5, 4, 1, 18, 23, 9, 14, 9, 1, 14, 1, 19, 9, 1, 5, 4, 1, 13, 5, 14, 9, 4, 20, 5, 14, 4, 2, 5, 20, 19, 4, 1, 13, 5, 14, 1, 7, 25, 8, 21, 5, 19]);
----------

%%  runtime:       1.460 (1460.123 ms)
%%  solvetime:     0.208 (208.004 ms)
%%  solutions:     1
%%  variables:     24960
%%  propagators:   32914
%%  propagations:  325545
%%  nodes:         186
%%  failures:      21
%%  restarts:      0
%%  peak depth:    155

GECODE_TUPLESET_SPEED
GECODE_TUPLESET_SPEED
GECODE_TUPLESET_SPEED
GECODE_TUPLESET_SPEED
GECODE_TUPLESET_SPEED
GECODE_TUPLESET_SPEED
GECODE_TUPLESET_SPEED
GECODE_TUPLESET_SPEED
GECODE_TUPLESET_SPEED
GECODE_TUPLESET_SPEED
GECODE_TUPLESET_SPEED
GECODE_TUPLESET_SPEED
GECODE_TUPLESET_SPEED
GECODE_TUPLESET_SPEED
GECODE_TUPLESET_SPEED
GECODE_TUPLESET_SPEED
GECODE_TUPLESET_SPEED
GECODE_TUPLESET_SPEED
GECODE_TUPLESET_SPEED
GECODE_TUPLESET_SPEED
GECODE_TUPLESET_SPEED
GECODE_TUPLESET_SPEED
GECODE_TUPLESET_SPEED
GECODE_TUPLESET_SPEED
GECODE_TUPLESET_SPEED
GECODE_TUPLESET_SPEED
GECODE_TUPLESET_SPEED
GECODE_TUPLESET_SPEED
GECODE_TUPLESET_SPEED
GECODE_TUPLESET_SPEED
GECODE_TUPLESET_SPEED
GECODE_TUPLESET_SPEED
GECODE_TUPLESET_SPEED
GECODE_TUPLESET_SPEED
GECODE_TUPLESET_SPEED
GECODE_TUPLESET_SPEED
GECODE_TUPLESET_SPEED
GECODE_TUPLESET_SPEED
GECODE_TUPLESET_SPEED
GECODE_TUPLESET_SPEED
GECODE_TUPLESET_SPEED
GECODE_TUPLESET_SPEED
GECODE_TUPLESET_SPEED
GECODE_TUPLESET_SPEED
GECODE_TUPLESET_SPEED
GECODE_TUPLESET_SPEED
GECODE_TUPLESET_SPEED
GECODE_TUPLESET_SPEED
GECODE_TUPLESET_SPEED
GECODE_TUPLESET_SPEED
GECODE_TUPLESET_SPEED
GECODE_TUPLESET_SPEED
GECODE_TUPLESET_SPEED
GECODE_TUPLESET_SPEED
GECODE_TUPLESET_SPEED
GECODE_TUPLESET_SPEED
GECODE_TUPLESET_SPEED
GECODE_TUPLESET_SPEED
GECODE_TUPLESET_SPEED
GECODE_TUPLESET_SPEED
GECODE_TUPLESET_SPEED
GECODE_TUPLESET_SPEED
GECODE_TUPLESET_SPEED
GECODE_TUPLESET_SPEED
GECODE_TUPLESET_SPEED
GECODE_TUPLESET_SPEED
GECODE_TUPLESET_SPEED
GECODE_TUPLESET_SPEED
GECODE_TUPLESET_SPEED
GECODE_TUPLESET_SPEED
GECODE_TUPLESET_SPEED
GECODE_TUPLESET_SPEED
GECODE_TUPLESET_SPEED
GECODE_TUPLESET_SPEED
GECODE_TUPLESET_SPEED
GECODE_TUPLESET_SPEED
GECODE_TUPLESET_SPEED
GECODE_TUPLESET_SPEED
GECODE_TUPLESET_SPEED
GECODE_TUPLESET_SPEED
GECODE_TUPLESET_SPEED
GECODE_TUPLESET_SPEED
GECODE_TUPLESET_SPEED
GECODE_TUPLESET_SPEED
GECODE_TUPLESET_SPEED
GECODE_TUPLESET_SPEED
GECODE_TUPLESET_SPEED
GECODE_TUPLESET_SPEED
GECODE_TUPLESET_SPEED
GECODE_TUPLESET_SPEED
GECODE_TUPLESET_SPEED
GECODE_TUPLESET_SPEED
GECODE_TUPLESET_SPEED
GECODE_TUPLESET_SPEED
GECODE_TUPLESET_SPEED
GECODE_TUPLESET_SPEED
GECODE_TUPLESET_SPEED
GECODE_TUPLESET_SPEED
GECODE_TUPLESET_SPEED
GECODE_TUPLESET_SPEED
GECODE_TUPLESET_SPEED
GECODE_TUPLESET_SPEED
GECODE_TUPLESET_SPEED
GECODE_TUPLESET_SPEED
GECODE_TUPLESET_SPEED
GECODE_TUPLESET_SPEED
GECODE_TUPLESET_SPEED
GECODE_TUPLESET_SPEED
GECODE_TUPLESET_SPEED
GECODE_TUPLESET_SPEED
GECODE_TUPLESET_SPEED
GECODE_TUPLESET_SPEED
GECODE_TUPLESET_SPEED
GECODE_TUPLESET_SPEED
GECODE_TUPLESET_SPEED
GECODE_TUPLESET_SPEED
GECODE_TUPLESET_SPEED
GECODE_TUPLESET_SPEED
GECODE_TUPLESET_SPEED
GECODE_TUPLESET_SPEED
GECODE_TUPLESET_SPEED
GECODE_TUPLESET_SPEED
GECODE_TUPLESET_SPEED
GECODE_TUPLESET_SPEED
GECODE_TUPLESET_SPEED
GECODE_TUPLESET_SPEED
GECODE_TUPLESET_SPEED
GECODE_TUPLESET_SPEED
L = array1d(0..301, [1, 18, 15, 1, 13, 1, 8, 1, 2, 1, 7, 5, 19, 8, 5, 18, 2, 5, 12, 2, 1, 4, 1, 4, 1, 7, 1, 5, 1, 1, 18, 9, 1, 2, 1, 12, 20, 8, 1, 26, 1, 18, 7, 15, 12, 4, 19, 13, 9, 20, 8, 1, 22, 5, 18, 1, 7, 5, 2, 1, 9, 12, 4, 1, 9, 19, 5, 19, 15, 14, 5, 2, 1, 2, 5, 2, 21, 12, 12, 2, 12, 1, 14, 4, 18, 1, 18, 5, 12, 15, 3, 1, 12, 9, 14, 7, 1, 9, 4, 19, 2, 5, 12, 1, 1, 9, 18, 5, 4, 13, 1, 5, 12, 5, 9, 20, 1, 9, 12, 21, 12, 14, 1, 5, 3, 1, 13, 5, 9, 4, 1, 8, 15, 1, 14, 9, 14, 4, 5, 24, 3, 1, 7, 5, 4, 2, 1, 7, 19, 1, 19, 16, 5, 14, 23, 1, 4, 9, 4, 8, 1, 11, 1, 3, 8, 1, 9, 14, 16, 1, 18, 19, 14, 9, 16, 18, 1, 20, 5, 16, 1, 5, 1, 14, 18, 1, 7, 1, 1, 12, 1, 1, 12, 9, 19, 21, 13, 1, 3, 7, 1, 7, 5, 1, 18, 11, 19, 2, 5, 3, 1, 12, 13, 5, 4, 2, 1, 20, 5, 1, 2, 25, 19, 19, 4, 5, 13, 15, 20, 1, 4, 19, 2, 21, 19, 2, 5, 19, 9, 4, 5, 1, 8, 1, 19, 16, 1, 4, 9, 12, 12, 1, 12, 1, 14, 4, 19, 12, 9, 4, 5, 4, 1, 18, 23, 9, 14, 9, 1, 14, 1, 19, 9, 1, 5, 4, 1, 13, 5, 14, 9, 4, 20, 5, 14, 4, 2, 5, 20, 19, 4, 1, 13, 5, 14, 1, 7, 25, 8, 21, 5, 19]);
----------

%%  runtime:       1.485 (1485.120 ms)
%%  solvetime:     0.229 (229.878 ms)
%%  solutions:     1
%%  variables:     24960
%%  propagators:   32914
%%  propagations:  332254
%%  nodes:         186
%%  failures:      21
%%  restarts:      0
%%  peak depth:    155

COMPACT_TABLE
COMPACT_TABLE
COMPACT_TABLE
COMPACT_TABLE
COMPACT_TABLE
COMPACT_TABLE
COMPACT_TABLE
COMPACT_TABLE
COMPACT_TABLE
COMPACT_TABLE
COMPACT_TABLE
COMPACT_TABLE
COMPACT_TABLE
COMPACT_TABLE
COMPACT_TABLE
COMPACT_TABLE
COMPACT_TABLE
COMPACT_TABLE
COMPACT_TABLE
COMPACT_TABLE
COMPACT_TABLE
COMPACT_TABLE
COMPACT_TABLE
COMPACT_TABLE
COMPACT_TABLE
COMPACT_TABLE
COMPACT_TABLE
COMPACT_TABLE
COMPACT_TABLE
COMPACT_TABLE
COMPACT_TABLE
COMPACT_TABLE
COMPACT_TABLE
COMPACT_TABLE
COMPACT_TABLE
COMPACT_TABLE
COMPACT_TABLE
COMPACT_TABLE
COMPACT_TABLE
COMPACT_TABLE
COMPACT_TABLE
COMPACT_TABLE
COMPACT_TABLE
COMPACT_TABLE
COMPACT_TABLE
COMPACT_TABLE
COMPACT_TABLE
COMPACT_TABLE
COMPACT_TABLE
COMPACT_TABLE
COMPACT_TABLE
COMPACT_TABLE
COMPACT_TABLE
COMPACT_TABLE
COMPACT_TABLE
COMPACT_TABLE
COMPACT_TABLE
COMPACT_TABLE
COMPACT_TABLE
COMPACT_TABLE
COMPACT_TABLE
COMPACT_TABLE
COMPACT_TABLE
COMPACT_TABLE
COMPACT_TABLE
COMPACT_TABLE
COMPACT_TABLE
COMPACT_TABLE
COMPACT_TABLE
COMPACT_TABLE
COMPACT_TABLE
COMPACT_TABLE
COMPACT_TABLE
COMPACT_TABLE
COMPACT_TABLE
COMPACT_TABLE
COMPACT_TABLE
COMPACT_TABLE
COMPACT_TABLE
COMPACT_TABLE
COMPACT_TABLE
COMPACT_TABLE
COMPACT_TABLE
COMPACT_TABLE
COMPACT_TABLE
COMPACT_TABLE
COMPACT_TABLE
COMPACT_TABLE
COMPACT_TABLE
COMPACT_TABLE
COMPACT_TABLE
COMPACT_TABLE
COMPACT_TABLE
COMPACT_TABLE
COMPACT_TABLE
COMPACT_TABLE
COMPACT_TABLE
COMPACT_TABLE
COMPACT_TABLE
COMPACT_TABLE
COMPACT_TABLE
COMPACT_TABLE
COMPACT_TABLE
COMPACT_TABLE
COMPACT_TABLE
COMPACT_TABLE
COMPACT_TABLE
COMPACT_TABLE
COMPACT_TABLE
COMPACT_TABLE
COMPACT_TABLE
COMPACT_TABLE
COMPACT_TABLE
COMPACT_TABLE
COMPACT_TABLE
COMPACT_TABLE
COMPACT_TABLE
COMPACT_TABLE
COMPACT_TABLE
COMPACT_TABLE
COMPACT_TABLE
COMPACT_TABLE
COMPACT_TABLE
COMPACT_TABLE
COMPACT_TABLE
COMPACT_TABLE
COMPACT_TABLE
COMPACT_TABLE
L = array1d(0..301, [1, 18, 15, 1, 13, 1, 8, 1, 2, 1, 7, 5, 19, 8, 5, 18, 2, 5, 12, 2, 1, 4, 1, 4, 1, 7, 1, 5, 1, 1, 18, 9, 1, 2, 1, 12, 20, 8, 1, 26, 1, 18, 7, 15, 12, 4, 19, 13, 9, 20, 8, 1, 22, 5, 18, 1, 7, 5, 2, 1, 9, 12, 4, 1, 9, 19, 5, 19, 15, 14, 5, 2, 1, 2, 5, 2, 21, 12, 12, 2, 12, 1, 14, 4, 18, 1, 18, 5, 12, 15, 3, 1, 12, 9, 14, 7, 1, 9, 4, 19, 2, 5, 12, 1, 1, 9, 18, 5, 4, 13, 1, 5, 12, 5, 9, 20, 1, 9, 12, 21, 12, 14, 1, 5, 3, 1, 13, 5, 9, 4, 1, 8, 15, 1, 14, 9, 14, 4, 5, 24, 3, 1, 7, 5, 4, 2, 1, 7, 19, 1, 19, 16, 5, 14, 23, 1, 4, 9, 4, 8, 1, 11, 1, 3, 8, 1, 9, 14, 16, 1, 18, 19, 14, 9, 16, 18, 1, 20, 5, 16, 1, 5, 1, 14, 18, 1, 7, 1, 1, 12, 1, 1, 12, 9, 19, 21, 13, 1, 3, 7, 1, 7, 5, 1, 18, 11, 19, 2, 5, 3, 1, 12, 13, 5, 4, 2, 1, 20, 5, 1, 2, 25, 19, 19, 4, 5, 13, 15, 20, 1, 4, 19, 2, 21, 19, 2, 5, 19, 9, 4, 5, 1, 8, 1, 19, 16, 1, 4, 9, 12, 12, 1, 12, 1, 14, 4, 19, 12, 9, 4, 5, 4, 1, 18, 23, 9, 14, 9, 1, 14, 1, 19, 9, 1, 5, 4, 1, 13, 5, 14, 9, 4, 20, 5, 14, 4, 2, 5, 20, 19, 4, 1, 13, 5, 14, 1, 7, 25, 8, 21, 5, 19]);
----------

%%  runtime:       1.824 (1824.396 ms)
%%  solvetime:     0.139 (139.178 ms)
%%  solutions:     1
%%  variables:     24960
%%  propagators:   32914
%%  propagations:  331011
%%  nodes:         186
%%  failures:      21
%%  restarts:      0
%%  peak depth:    155

